Route #1: 0 9 45 13 26 43 14 23 0
Route #2: 0 6 4 30 2 37 0
Route #3: 0 36 5 39 7 10 22 3 32 0
Route #4: 0 12 35 18 25 44 0
Route #5: 0 11 8 33 42 16 24 15 0
Route #6: 0 19 20 27 1 40 34 31 29 41 0
Route #7: 0 17 21 28 38 0
Cost 1000:
